
Gurobi 7.0.2 (linux64, Matlab) logging started Sun Sep  2 08:55:51 2018


Gurobi 7.0.2 (linux64) logging started Sun Sep  2 08:55:51 2018

Optimize a model with 32277 rows, 48893 columns and 192513 nonzeros
Coefficient statistics:
  Matrix range     [5e-01, 1e+00]
  Objective range  [2e+01, 6e+03]
  Bounds range     [1e+00, 2e+00]
  RHS range        [1e+00, 1e+01]
Iteration    Objective       Primal Inf.    Dual Inf.      Time
       0    5.3998333e+04   0.000000e+00   0.000000e+00      0s

Solved in 0 iterations and 0.02 seconds
Optimal objective  5.399833333e+04
